objective value:                           -6117.0359
x5                                                  1 	(obj:-431.75)
x13                                                 1 	(obj:-201.842)
x89                                                 1 	(obj:-48.4567)
x134                                                1 	(obj:-173.604)
x146                                                1 	(obj:-171.15)
x148                                                1 	(obj:-564)
x177                                                1 	(obj:-381.538)
x215                                                1 	(obj:-725.928)
x261                                                1 	(obj:-432.343)
x272                                                1 	(obj:-165.755)
x288                                                1 	(obj:-525.973)
x314                                                1 	(obj:-293.71)
x327                                                1 	(obj:-134.109)
x328                                                1 	(obj:-178.57)
x349                                                1 	(obj:-33.0891)
x367                                                1 	(obj:-267.973)
x382                                                1 	(obj:-36.1302)
x389                                                1 	(obj:-279.731)
x436                                                1 	(obj:-293.219)
x456                                                1 	(obj:-53.8929)
x479                                                1 	(obj:-181.706)
x483                                                1 	(obj:-542.566)
